'largeuniformBPP61'
      25
     100
      95         1
      91         1
      88         1
      80         1
      76         1
      75         1
      71         1
      65         1
      62         1
      61         1
      60         1
      55         1
      48         1
      47         1
      42         1
      41         1
      37         1
      31         1
      30         1
      29         1
      19         1
      16         1
       5         1
       2         2
       1         1
'largeuniformBPP62'
      22
     100
      93         1
      88         1
      86         1
      80         1
      75         2
      74         1
      70         1
      58         1
      57         1
      56         1
      44         2
      35         1
      34         1
      33         1
      23         1
      22         2
      18         1
      16         1
      12         1
       9         2
       8         1
       1         1
'largeuniformBPP63'
      25
     100
      98         2
      97         1
      89         1
      79         1
      78         1
      75         1
      74         1
      73         1
      72         1
      69         1
      60         1
      52         1
      42         1
      38         1
      35         1
      34         1
      23         1
      21         1
      20         1
      11         1
      10         1
       9         1
       6         1
       4         1
       3         1
'largeuniformBPP64'
      24
     100
      99         1
      97         1
      95         1
      93         1
      92         1
      87         1
      68         1
      66         1
      63         1
      60         1
      58         1
      57         1
      56         1
      52         1
      51         1
      50         1
      46         2
      42         1
      33         2
      28         1
      23         1
      16         1
      13         1
       3         1
'largeuniformBPP65'
      26
     100
      99         1
      98         1
      97         1
      95         1
      93         1
      92         1
      91         1
      90         1
      87         1
      83         1
      81         1
      80         1
      77         1
      72         1
      66         1
      65         1
      62         1
      61         1
      60         1
      57         1
      34         1
      20         1
       8         1
       7         1
       5         1
       3         1
'largeuniformBPP66'
      21
     100
     100         1
      97         1
      90         2
      86         1
      77         1
      72         2
      68         1
      56         1
      54         1
      51         1
      49         1
      48         1
      44         1
      35         1
      25         1
      23         1
      21         1
       9         1
       8         2
       7         2
       3         2
'largeuniformBPP67'
      30
     100
      95         1
      91         1
      88         1
      80         1
      76         1
      75         1
      71         1
      65         1
      62         1
      61         1
      60         1
      58         1
      57         1
      55         1
      48         1
      47         1
      42         1
      41         1
      37         1
      35         1
      34         1
      31         1
      30         1
      29         1
      23         1
      19         1
      16         1
       5         1
       2         2
       1         2
'largeuniformBPP68'
      27
     100
      93         1
      89         1
      88         1
      86         1
      80         1
      79         1
      78         1
      75         2
      74         1
      73         1
      72         1
      70         1
      69         1
      60         1
      56         1
      52         1
      44         2
      35         1
      33         1
      22         2
      18         1
      16         1
      12         1
      10         1
       9         3
       8         1
       3         1
'largeuniformBPP69'
      28
     100
      99         1
      98         2
      97         1
      93         1
      92         1
      87         1
      75         1
      74         1
      68         1
      63         1
      60         1
      58         1
      57         1
      51         1
      50         1
      46         1
      42         2
      38         1
      34         1
      33         2
      23         2
      21         1
      20         1
      16         1
      11         1
       6         1
       4         1
       3         1
'largeuniformBPP70'
      29
     100
      99         1
      98         1
      97         2
      95         2
      93         1
      92         1
      91         1
      90         1
      87         1
      83         1
      80         1
      77         1
      72         1
      66         2
      65         1
      62         1
      61         1
      60         1
      57         1
      56         1
      52         1
      46         1
      34         1
      28         1
      20         1
      13         1
       8         1
       5         1
       3         1
'largeuniformBPP71'
      26
     100
     100         1
      97         1
      94         1
      92         1
      91         1
      90         2
      86         1
      81         1
      79         1
      77         1
      72         2
      68         1
      56         1
      54         1
      51         1
      49         1
      48         1
      44         1
      35         1
      25         1
      23         1
      21         1
       9         1
       8         2
       7         3
       3         2
'largeuniformBPP72'
      26
     100
      99         1
      98         1
      96         1
      89         1
      86         1
      85         1
      80         2
      76         1
      75         2
      70         1
      69         2
      68         1
      66         2
      64         3
      63         1
      48         1
      47         1
      29         1
      28         1
      26         1
      22         1
      21         1
      19         1
      18         1
      11         1
       8         1
'largeuniformBPP73'
      33
     100
      95         1
      91         1
      88         1
      86         1
      80         2
      76         1
      75         2
      74         1
      71         1
      65         1
      62         1
      61         1
      60         1
      58         1
      57         1
      55         1
      48         1
      47         1
      42         1
      41         1
      37         1
      35         1
      34         1
      31         1
      30         1
      29         1
      23         1
      22         1
      19         1
      16         2
       5         1
       2         2
       1         2
'largeuniformBPP74'
      33
     100
      98         2
      93         1
      89         1
      88         1
      79         1
      78         1
      75         2
      74         1
      73         1
      72         1
      70         1
      69         1
      60         1
      56         1
      52         1
      44         2
      42         1
      38         1
      35         1
      34         1
      33         1
      23         1
      22         1
      21         1
      18         1
      12         1
      11         1
      10         1
       9         3
       8         1
       6         1
       4         1
       3         1
'largeuniformBPP75'
      30
     100
      99         1
      98         1
      97         3
      95         2
      93         1
      92         2
      91         1
      87         1
      83         1
      77         1
      68         1
      66         1
      63         1
      61         1
      60         2
      58         1
      57         1
      56         1
      52         1
      51         1
      50         1
      46         2
      42         1
      33         2
      28         1
      23         1
      20         1
      16         1
      13         1
       3         2
'largeuniformBPP76'
      31
     100
     100         1
      99         1
      97         1
      93         1
      90         3
      87         1
      86         1
      81         1
      80         1
      77         1
      72         2
      68         1
      66         1
      65         1
      62         1
      57         1
      54         1
      51         1
      49         1
      48         1
      44         1
      35         1
      34         1
      25         1
      21         1
      20         1
       9         1
       8         3
       7         3
       5         1
       3         1
'largeuniformBPP77'
      33
     100
      99         1
      98         1
      96         1
      94         1
      92         1
      91         1
      86         1
      85         1
      80         2
      79         1
      76         1
      75         2
      72         1
      70         1
      69         2
      68         1
      66         2
      64         2
      63         1
      56         1
      48         1
      47         1
      29         1
      28         1
      26         1
      23         1
      22         1
      21         1
      19         1
      18         1
      11         1
       8         1
       3         1
'largeuniformBPP78'
      37
     100
     100         1
      95         1
      94         1
      93         1
      91         1
      89         1
      88         1
      86         1
      82         1
      80         1
      71         1
      69         1
      67         1
      65         1
      64         1
      63         1
      61         1
      58         1
      52         1
      48         1
      47         1
      46         1
      43         1
      41         1
      39         1
      38         1
      35         1
      32         1
      25         1
      24         1
      21         1
      14         1
      13         2
      11         1
      10         1
       6         1
       2         1
